c Random generated cnf formula, satisfiable: false
p cnf 10 50
6 8 7 0
-4 -5 3 0
4 3 -9 0
6 1 3 0
1 10 -3 0
-10 -9 -3 0
-4 -3 2 0
2 -4 -1 0
-10 -5 -2 0
-7 2 1 0
1 5 2 0
-10 2 1 0
-5 -6 -9 0
10 -9 -3 0
5 -1 8 0
2 -3 -4 0
5 -8 -2 0
1 -2 8 0
-4 -9 -5 0
-10 -1 2 0
4 9 -10 0
10 -7 -2 0
7 10 -3 0
10 4 9 0
3 2 10 0
-2 -10 1 0
-6 -8 -7 0
8 -4 -1 0
-5 2 -3 0
10 4 3 0
-3 7 10 0
1 -5 2 0
1 2 10 0
-9 7 -6 0
6 -7 1 0
-9 -2 -1 0
4 -10 1 0
5 3 -2 0
5 -3 2 0
-4 6 7 0
-9 5 -1 0
-10 9 -6 0
7 -1 -10 0
10 -5 3 0
-4 -5 9 0
-2 -8 6 0
3 1 -2 0
-9 -10 -1 0
9 10 -2 0
-3 6 10 0
